100
89 6
848 549
199 634
853 679
78 759
111 846
686 488
516 782
780 157
337 543
334 244
685 185
137 455
472 934
147 504
737 591
545 863
930 797
839 236
691 278
386 230
415 281
202 6
527 886
826 406
194 559
275 521
127 137
675 9
339 936
503 571
126 235
507 381
0 842
45 708
790 992
280 122
986 603
649 55
510 376
739 953
50 480
257 10
410 781
141 540
21 374
667 220
758 166
105 225
849 60
157 320
740 638
507 279
756 419
656 576
166 168
378 155
77 584
876 434
381 266
428 181
953 775
277 849
922 260
469 172
65 79
719 825
268 693
940 781
227 123
370 702
976 29
239 224
370 520
628 680
715 384
800 824
632 936
890 972
962 146
340 428
713 871
568 26
893 153
802 640
710 508
431 483
185 832
10 941
835 48
413 844
70 272
985 503
19 702
230 988
923 229
125 367
575 879
766 599
379 734
